302 5
3 3 3 3 3
0  0 0 0 0 0  60 2 7 12 17 22 27 32 37 42 47 52 57 62 67 72 77 82 87 92 97 102 107 112 117 122 127 132 137 142 147 152 157 162 167 172 177 182 187 192 197 202 207 212 217 222 227 232 237 242 247 252 257 262 267 272 277 282 287 292 297
60  0 0 0 1 0  1 3
87  1 0 0 0 0  1 4
72  0 1 0 0 0  1 5
95  0 0 0 0 1  1 6
66  0 0 1 0 0  1 302
54  0 1 0 0 0  1 8
48  1 0 0 0 0  1 9
39  0 0 1 0 0  1 10
35  0 0 0 1 0  1 11
5  0 0 0 0 1  1 302
20  0 0 0 1 0  1 13
46  0 1 0 0 0  1 14
97  1 0 0 0 0  1 15
21  0 0 1 0 0  1 16
55  0 0 0 0 1  1 302
37  0 0 1 0 0  1 18
59  1 0 0 0 0  1 19
19  0 0 0 1 0  1 20
34  0 1 0 0 0  1 21
46  0 0 0 0 1  1 302
73  0 0 1 0 0  1 23
25  0 0 0 1 0  1 24
24  0 1 0 0 0  1 25
28  1 0 0 0 0  1 26
23  0 0 0 0 1  1 302
78  0 1 0 0 0  1 28
28  0 0 0 1 0  1 29
83  0 0 1 0 0  1 30
45  1 0 0 0 0  1 31
5  0 0 0 0 1  1 302
71  0 0 0 1 0  1 33
37  0 1 0 0 0  1 34
12  0 0 1 0 0  1 35
29  0 0 0 0 1  1 36
53  1 0 0 0 0  1 302
12  0 0 0 0 1  1 38
33  0 0 0 1 0  1 39
55  0 1 0 0 0  1 40
87  0 0 1 0 0  1 41
38  1 0 0 0 0  1 302
48  1 0 0 0 0  1 43
40  0 1 0 0 0  1 44
49  0 0 1 0 0  1 45
83  0 0 0 1 0  1 46
7  0 0 0 0 1  1 302
90  1 0 0 0 0  1 48
27  0 0 0 0 1  1 49
65  0 0 1 0 0  1 50
17  0 0 0 1 0  1 51
23  0 1 0 0 0  1 302
62  1 0 0 0 0  1 53
85  0 0 0 1 0  1 54
66  0 1 0 0 0  1 55
84  0 0 1 0 0  1 56
19  0 0 0 0 1  1 302
59  0 0 0 1 0  1 58
46  0 0 1 0 0  1 59
13  0 0 0 0 1  1 60
64  0 1 0 0 0  1 61
25  1 0 0 0 0  1 302
53  0 0 1 0 0  1 63
73  0 1 0 0 0  1 64
80  0 0 0 1 0  1 65
88  0 0 0 0 1  1 66
41  1 0 0 0 0  1 302
57  0 0 1 0 0  1 68
47  0 0 0 0 1  1 69
14  1 0 0 0 0  1 70
67  0 1 0 0 0  1 71
74  0 0 0 1 0  1 302
41  0 0 1 0 0  1 73
64  0 0 0 0 1  1 74
84  0 0 0 1 0  1 75
78  0 1 0 0 0  1 76
84  1 0 0 0 0  1 302
52  0 0 0 0 1  1 78
28  0 0 0 1 0  1 79
26  0 0 1 0 0  1 80
63  1 0 0 0 0  1 81
46  0 1 0 0 0  1 302
11  0 1 0 0 0  1 83
64  1 0 0 0 0  1 84
10  0 0 0 1 0  1 85
73  0 0 0 0 1  1 86
17  0 0 1 0 0  1 302
38  0 0 0 0 1  1 88
95  0 0 0 1 0  1 89
85  1 0 0 0 0  1 90
97  0 1 0 0 0  1 91
67  0 0 1 0 0  1 302
93  0 0 0 1 0  1 93
65  0 1 0 0 0  1 94
95  0 0 1 0 0  1 95
59  1 0 0 0 0  1 96
46  0 0 0 0 1  1 302
60  1 0 0 0 0  1 98
85  0 1 0 0 0  1 99
43  0 0 1 0 0  1 100
85  0 0 0 0 1  1 101
32  0 0 0 1 0  1 302
60  0 0 0 1 0  1 103
87  1 0 0 0 0  1 104
72  0 1 0 0 0  1 105
95  0 0 0 0 1  1 106
66  0 0 1 0 0  1 302
54  0 1 0 0 0  1 108
48  1 0 0 0 0  1 109
39  0 0 1 0 0  1 110
35  0 0 0 1 0  1 111
5  0 0 0 0 1  1 302
20  0 0 0 1 0  1 113
46  0 1 0 0 0  1 114
97  1 0 0 0 0  1 115
21  0 0 1 0 0  1 116
55  0 0 0 0 1  1 302
37  0 0 1 0 0  1 118
59  1 0 0 0 0  1 119
19  0 0 0 1 0  1 120
34  0 1 0 0 0  1 121
46  0 0 0 0 1  1 302
73  0 0 1 0 0  1 123
25  0 0 0 1 0  1 124
24  0 1 0 0 0  1 125
28  1 0 0 0 0  1 126
23  0 0 0 0 1  1 302
78  0 1 0 0 0  1 128
28  0 0 0 1 0  1 129
83  0 0 1 0 0  1 130
45  1 0 0 0 0  1 131
5  0 0 0 0 1  1 302
71  0 0 0 1 0  1 133
37  0 1 0 0 0  1 134
12  0 0 1 0 0  1 135
29  0 0 0 0 1  1 136
53  1 0 0 0 0  1 302
12  0 0 0 0 1  1 138
33  0 0 0 1 0  1 139
55  0 1 0 0 0  1 140
87  0 0 1 0 0  1 141
38  1 0 0 0 0  1 302
48  1 0 0 0 0  1 143
40  0 1 0 0 0  1 144
49  0 0 1 0 0  1 145
83  0 0 0 1 0  1 146
7  0 0 0 0 1  1 302
90  1 0 0 0 0  1 148
27  0 0 0 0 1  1 149
65  0 0 1 0 0  1 150
17  0 0 0 1 0  1 151
23  0 1 0 0 0  1 302
62  1 0 0 0 0  1 153
85  0 0 0 1 0  1 154
66  0 1 0 0 0  1 155
84  0 0 1 0 0  1 156
19  0 0 0 0 1  1 302
59  0 0 0 1 0  1 158
46  0 0 1 0 0  1 159
13  0 0 0 0 1  1 160
64  0 1 0 0 0  1 161
25  1 0 0 0 0  1 302
53  0 0 1 0 0  1 163
73  0 1 0 0 0  1 164
80  0 0 0 1 0  1 165
88  0 0 0 0 1  1 166
41  1 0 0 0 0  1 302
57  0 0 1 0 0  1 168
47  0 0 0 0 1  1 169
14  1 0 0 0 0  1 170
67  0 1 0 0 0  1 171
74  0 0 0 1 0  1 302
41  0 0 1 0 0  1 173
64  0 0 0 0 1  1 174
84  0 0 0 1 0  1 175
78  0 1 0 0 0  1 176
84  1 0 0 0 0  1 302
52  0 0 0 0 1  1 178
28  0 0 0 1 0  1 179
26  0 0 1 0 0  1 180
63  1 0 0 0 0  1 181
46  0 1 0 0 0  1 302
11  0 1 0 0 0  1 183
64  1 0 0 0 0  1 184
10  0 0 0 1 0  1 185
73  0 0 0 0 1  1 186
17  0 0 1 0 0  1 302
38  0 0 0 0 1  1 188
95  0 0 0 1 0  1 189
85  1 0 0 0 0  1 190
97  0 1 0 0 0  1 191
67  0 0 1 0 0  1 302
93  0 0 0 1 0  1 193
65  0 1 0 0 0  1 194
95  0 0 1 0 0  1 195
59  1 0 0 0 0  1 196
46  0 0 0 0 1  1 302
60  1 0 0 0 0  1 198
85  0 1 0 0 0  1 199
43  0 0 1 0 0  1 200
85  0 0 0 0 1  1 201
32  0 0 0 1 0  1 302
60  0 0 0 1 0  1 203
87  1 0 0 0 0  1 204
72  0 1 0 0 0  1 205
95  0 0 0 0 1  1 206
66  0 0 1 0 0  1 302
54  0 1 0 0 0  1 208
48  1 0 0 0 0  1 209
39  0 0 1 0 0  1 210
35  0 0 0 1 0  1 211
5  0 0 0 0 1  1 302
20  0 0 0 1 0  1 213
46  0 1 0 0 0  1 214
97  1 0 0 0 0  1 215
21  0 0 1 0 0  1 216
55  0 0 0 0 1  1 302
37  0 0 1 0 0  1 218
59  1 0 0 0 0  1 219
19  0 0 0 1 0  1 220
34  0 1 0 0 0  1 221
46  0 0 0 0 1  1 302
73  0 0 1 0 0  1 223
25  0 0 0 1 0  1 224
24  0 1 0 0 0  1 225
28  1 0 0 0 0  1 226
23  0 0 0 0 1  1 302
78  0 1 0 0 0  1 228
28  0 0 0 1 0  1 229
83  0 0 1 0 0  1 230
45  1 0 0 0 0  1 231
5  0 0 0 0 1  1 302
71  0 0 0 1 0  1 233
37  0 1 0 0 0  1 234
12  0 0 1 0 0  1 235
29  0 0 0 0 1  1 236
53  1 0 0 0 0  1 302
12  0 0 0 0 1  1 238
33  0 0 0 1 0  1 239
55  0 1 0 0 0  1 240
87  0 0 1 0 0  1 241
38  1 0 0 0 0  1 302
48  1 0 0 0 0  1 243
40  0 1 0 0 0  1 244
49  0 0 1 0 0  1 245
83  0 0 0 1 0  1 246
7  0 0 0 0 1  1 302
90  1 0 0 0 0  1 248
27  0 0 0 0 1  1 249
65  0 0 1 0 0  1 250
17  0 0 0 1 0  1 251
23  0 1 0 0 0  1 302
62  1 0 0 0 0  1 253
85  0 0 0 1 0  1 254
66  0 1 0 0 0  1 255
84  0 0 1 0 0  1 256
19  0 0 0 0 1  1 302
59  0 0 0 1 0  1 258
46  0 0 1 0 0  1 259
13  0 0 0 0 1  1 260
64  0 1 0 0 0  1 261
25  1 0 0 0 0  1 302
53  0 0 1 0 0  1 263
73  0 1 0 0 0  1 264
80  0 0 0 1 0  1 265
88  0 0 0 0 1  1 266
41  1 0 0 0 0  1 302
57  0 0 1 0 0  1 268
47  0 0 0 0 1  1 269
14  1 0 0 0 0  1 270
67  0 1 0 0 0  1 271
74  0 0 0 1 0  1 302
41  0 0 1 0 0  1 273
64  0 0 0 0 1  1 274
84  0 0 0 1 0  1 275
78  0 1 0 0 0  1 276
84  1 0 0 0 0  1 302
52  0 0 0 0 1  1 278
28  0 0 0 1 0  1 279
26  0 0 1 0 0  1 280
63  1 0 0 0 0  1 281
46  0 1 0 0 0  1 302
11  0 1 0 0 0  1 283
64  1 0 0 0 0  1 284
10  0 0 0 1 0  1 285
73  0 0 0 0 1  1 286
17  0 0 1 0 0  1 302
38  0 0 0 0 1  1 288
95  0 0 0 1 0  1 289
85  1 0 0 0 0  1 290
97  0 1 0 0 0  1 291
67  0 0 1 0 0  1 302
93  0 0 0 1 0  1 293
65  0 1 0 0 0  1 294
95  0 0 1 0 0  1 295
59  1 0 0 0 0  1 296
46  0 0 0 0 1  1 302
60  1 0 0 0 0  1 298
85  0 1 0 0 0  1 299
43  0 0 1 0 0  1 300
85  0 0 0 0 1  1 301
32  0 0 0 1 0  1 302
0  0 0 0 0 0  0
